Li Mo S 
 1.0000000000000000
     6.3200000000000003    0.0000000000000000    0.0000000000000000
     0.0000000000000000   12.3000000000000007    0.0000000000000000
     0.0000000000000000    0.0000000000000000   29.6221342531960872
 Li  Mo  S  
   2  16  38
Direct
  1.0537974683544302  0.4214222478905602  0.6624146013746106
 -0.0537974683544302  0.4214222478905602  0.6624146013746107
  0.7499999999999997  0.7500000000000001  0.5611389817869938
 -0.0000000000000004  0.2500000000000000  0.5303439885051987
 -0.0000000000000004  0.7500000000000001  0.4687540019416084
  0.7499999999999997  0.2500000000000000  0.4379590086598131
  0.7499999999999997  0.7500000000000001  0.3763690220962228
 -0.0000000000000002  0.2500000000000000  0.3455740288144276
 -0.0000000000000002  0.7500000000000001  0.2839840422508372
  0.7499999999999997  0.2500000000000000  0.2531890489690420
  0.2499999999999999  0.7500000000000001  0.5611389817869938
  0.4999999999999997  0.2500000000000000  0.5303439885051987
  0.4999999999999997  0.7500000000000001  0.4687540019416084
  0.2499999999999999  0.2500000000000000  0.2531890489690420
  0.4999999999999998  0.2500000000000000  0.3455740288144276
  0.2499999999999999  0.7500000000000001  0.3763690220962228
  0.4999999999999998  0.7500000000000001  0.2839840422508372
  0.2499999999999998  0.2500000000000000  0.4379590086598131
  0.4999999999999997  0.1300000000000000  0.4687540019416084
  0.4999999999999998  0.3700000000000000  0.2839840422508372
 -0.0000000000000004  0.1300000000000000  0.4687540019416084
  0.7499999999999997  0.6300000000000000  0.4379590086598131
 -0.0000000000000004  0.3700000000000000  0.4687540019416084
  0.7499999999999997  0.8700000000000000  0.4379590086598131
  0.2499999999999999  0.6300000000000000  0.2531890489690420
  0.7499999999999997  0.1300000000000000  0.5611389817869938
 -0.0000000000000004  0.6300000000000000  0.5303439885051987
  0.7499999999999997  0.3700000000000000  0.5611389817869938
 -0.0000000000000004  0.8700000000000000  0.5303439885051987
  0.1044303797468353  0.5433734674027554  0.6556628934021028
  0.2626582278481011  0.5785777521094398  0.6455353314433411
  0.4208860759493669  0.5785777521094398  0.6354077694845794
  0.5791139240506328  0.5433734674027554  0.6455353314433411
  0.7373417721518988  0.5081691826960709  0.6556628934021028
  0.4999999999999998  0.1300000000000000  0.2839840422508372
  0.2499999999999999  0.8700000000000000  0.2531890489690420
  0.7499999999999997  0.3700000000000000  0.3763690220962228
 -0.0000000000000002  0.6300000000000000  0.3455740288144276
  0.2499999999999998  0.6300000000000000  0.4379590086598131
  0.4999999999999997  0.3700000000000000  0.4687540019416084
  0.2499999999999998  0.8700000000000000  0.4379590086598131
  0.4999999999999998  0.8700000000000000  0.3455740288144276
  0.2499999999999999  0.3700000000000000  0.3763690220962228
  0.2499999999999999  0.1300000000000000  0.5611389817869938
  0.4999999999999997  0.6300000000000000  0.5303439885051987
 -0.0000000000000002  0.8700000000000000  0.3455740288144276
  0.2499999999999999  0.3700000000000000  0.5611389817869938
  0.4999999999999998  0.6300000000000000  0.3455740288144276
  0.2499999999999999  0.1300000000000000  0.3763690220962228
 -0.0000000000000002  0.1300000000000000  0.2839840422508372
  0.8955696202531643  0.5081691826960709  0.6455353314433411
 -0.0000000000000002  0.3700000000000000  0.2839840422508372
  0.7499999999999997  0.8700000000000000  0.2531890489690420
  0.7499999999999997  0.1300000000000000  0.3763690220962228
  0.4999999999999997  0.8700000000000000  0.5303439885051987
  0.7499999999999997  0.6300000000000000  0.2531890489690420
