Mo S 
 1.0000000000000000
     3.1600000000000001    0.0000000000000000    0.0000000000000000
    -1.5800000000000001    2.7366402759588260    0.0000000000000000
     0.0000000000000000    0.0000000000000000   12.3000000000000007
 Mo  S  
   2   4
Direct
  0.3333333333333333  0.6666666666666666  0.2500000000000000
  0.6666666666666665  0.3333333333333333  0.7500000000000001
  0.6666666666666665  0.3333333333333333  0.1300000000000000
  0.3333333333333333  0.6666666666666666  0.6300000000000000
  0.6666666666666665  0.3333333333333333  0.3700000000000000
  0.3333333333333333  0.6666666666666666  0.8700000000000000
