(written by ASE)

201 atoms
9 atom types

0.0      13.788207999999999  xlo xhi
0.0      13.788207999999999  ylo yhi
0.0      13.788207999999999  zlo zhi

Atoms # atomic

     1   8      5.1642369999999991      13.108646999999998      10.092884999999999
     2   8      8.1848249999999982      2.2383619999999995      2.6042699999999996
     3   8     0.89742399999999989      11.992155999999998      7.9173959999999992
     4   8      9.4364099999999986     0.34369199999999994      13.423556999999999
     5   8      11.304361999999998      2.5207659999999996      2.8296999999999994
     6   8      2.9259269999999997      4.9479669999999993      7.0492479999999995
     7   8       5.832635999999999      3.6138769999999996      8.7352319999999981
     8   8      2.2822669999999996      3.9543349999999995      4.7522639999999994
     9   8      6.0961769999999991      10.718370999999998      2.5072809999999994
    10   8      6.8829889999999994      8.0221039999999988     0.56432099999999985
    11   8      8.8707639999999977      3.0791329999999997     0.82470199999999994
    12   8      12.595969999999998      13.307866999999998      11.112090999999998
    13   8      3.8296649999999994      1.4875659999999997       9.665049999999999
    14   8      6.0512819999999987      2.0107419999999996      6.3764229999999991
    15   8     0.76192199999999988      12.656951999999999      3.6890139999999993
    16   8      9.1240309999999987      4.2885789999999995      7.1520749999999991
    17   8      7.1604979999999987      2.6711679999999998      13.003974999999999
    18   8      10.458446999999998      12.587704999999998      12.677743999999999
    19   8      8.0832059999999988      11.697442999999998      1.1868839999999998
    20   8      2.0893509999999997     0.47520199999999996      4.6937799999999994
    21   8      5.7274369999999992      3.6606039999999997      10.936668999999998
    22   8      4.6858139999999988      4.0048859999999991      7.1445989999999995
    23   8      2.0108989999999998      11.689052999999998      1.0416629999999998
    24   8      13.596441999999998      10.658250999999998      2.7641519999999997
    25   8     0.17740299999999998      11.238294999999999      9.6213239999999978
    26   8      9.7319559999999985      10.589414999999999     0.95956799999999987
    27   8      5.1902279999999994      1.7509849999999998      11.102266999999998
    28   8      8.6069909999999989      5.0501709999999989     0.98184499999999986
    29   8       4.266602999999999      4.3317769999999989      9.7496199999999984
    30   8      9.0203149999999983      11.954373999999998       6.431792999999999
    31   8      1.3996179999999998      9.8025999999999982      10.300059999999998
    32   8      7.6464559999999988      10.930907999999999      7.4636129999999987
    33   8      6.9871919999999994       6.015191999999999     0.31749099999999997
    34   8      1.7393799999999997      13.502370999999998      8.9184339999999978
    35   8      4.6391719999999994      7.0889759999999988      12.125682999999999
    36   8      3.2656919999999996      5.8648159999999994      10.549173999999999
    37   1      3.6050629999999995      1.4482209999999998      3.8244159999999994
    38   1      2.6224029999999994      12.985187999999999      11.090351999999998
    39   1      8.6699999999999982      11.879013999999998      11.077911999999998
    40   1      2.8915929999999994      12.056488999999997      7.7809069999999991
    41   1      11.541485999999999      12.659267999999999      3.7214249999999995
    42   1      1.3139159999999999      2.6864519999999996      5.9538389999999994
    43   1      11.551706999999999      11.288343999999999      13.730732999999999
    44   1      6.5895339999999987       5.918690999999999      2.2785369999999996
    45   1      1.9113059999999997      4.8072259999999991      12.944711999999999
    46   1      4.4841489999999995      7.1874139999999995       9.674160999999998
    47   1      4.9029169999999995      13.163502999999999     0.10962799999999999
    48   1      3.5501849999999995      7.0492859999999995      3.8963219999999996
    49   3      3.6170069999999996     0.11852199999999999      8.2243039999999983
    50   3      7.0069909999999993      1.1239179999999998      4.0816719999999993
    51   3      12.999700999999998      2.9803429999999995      1.8367239999999998
    52   3      6.8137419999999995      13.221850999999997      3.0303669999999996
    53   3      8.8380299999999981      10.405505999999999      2.8790729999999995
    54   3      10.051761999999998      5.0804279999999995      8.7370959999999975
    55   3       8.735815999999998      7.0027119999999989      1.3725859999999999
    56   3      11.144739999999999      4.4740499999999992      3.2270259999999995
    57   2     0.44942599999999994      8.1868549999999978      9.6102929999999986
    58   2     0.51919499999999985      6.8589579999999994      3.0310639999999998
    59   2       9.126161999999999      2.6823979999999996      9.7817509999999981
    60   2      5.1302369999999993      12.777539999999998      2.0533309999999996
    61   2      4.6332379999999995      2.0815539999999997      13.011191999999998
    62   2      12.096937999999998      3.5565529999999996      9.0999969999999983
    63   2      10.957808999999997       7.383697999999999       7.578644999999999
    64   2      3.0996879999999996      1.1150759999999997      11.970638999999998
    65   5      12.338538999999999      8.7258839999999989      5.0555819999999994
    66   5      4.7715139999999989      9.9228259999999988      12.262489999999998
    67   5      11.967393999999999      11.037282999999999      8.4802979999999977
    68   5      1.2489279999999998      2.2836919999999994      12.507076999999999
    69   5      8.6756599999999988      13.579453999999998      1.5042589999999998
    70   5      9.7954919999999976      13.775659999999998      3.1478819999999996
    71   6      7.5660559999999988      9.5399949999999976      8.9893779999999985
    72   6      3.5150949999999996      9.7961199999999984      2.8410919999999997
    73   6      4.4830479999999993      10.377451999999998      8.8407069999999983
    74   6      11.898651999999998      9.1027639999999987      7.9772759999999989
    75   9      1.2240359999999997      5.0387959999999987      3.4504819999999996
    76   9      3.5648459999999997      13.234091999999999      5.5765439999999993
    77   7      12.422937999999998      8.5347499999999989      11.168912999999998
    78   7      6.9641269999999995      7.9364669999999995      6.7963409999999991
    79   7      2.3217339999999997      10.101634999999998      4.4166869999999987
    80   7      0.6533699999999999      8.7966519999999981      2.5614839999999997
    81   7      12.912759999999999      12.988603999999999      13.089951999999998
    82   7      5.2088199999999993      13.776997999999999      12.027495999999998
    83   7      6.7468049999999993      13.048221999999999      13.075675999999998
    84   7      11.673483999999998      4.0360379999999987      5.3207409999999991
    85   7      12.592291999999999      4.9362939999999993      1.9275209999999998
    86   7      7.4619619999999989      12.970969999999998      9.9168119999999984
    87   7      8.2182699999999986      1.3441289999999997       8.606265999999998
    88   7    0.013871999999999999      2.2196829999999994      7.3973839999999988
    89   7      12.324779999999999      10.343266999999999      10.321033999999997
    90   7      9.6498399999999975      4.6552949999999989      4.5422509999999994
    91   7      11.114462999999999      10.915960999999998      11.803808999999998
    92   7      12.703606999999998      7.0725559999999987      6.6544749999999988
    93   7      11.023415999999997      8.9374939999999974      9.7669299999999986
    94   7      10.772805999999997      12.273900999999999      5.5258729999999989
    95   7      4.7798219999999993      1.7731819999999998      7.9295809999999989
    96   7     0.28459499999999993      5.8562209999999988      7.7092889999999992
    97   7      3.8859759999999994      8.1558959999999985      13.640262999999997
    98   7     0.50568699999999989      11.238787999999998      5.0757789999999989
    99   7      1.7800239999999998      7.1895589999999991      10.717191999999999
   100   7      2.8221689999999997      8.4673709999999982      1.5166569999999997
   101   7     0.41438099999999994      7.9702089999999988      7.6255299999999995
   102   7      8.7516239999999978      10.108763999999999      12.986591999999998
   103   7      6.8829959999999994      5.2415359999999991      10.558967999999998
   104   7      4.3673969999999995      5.6956649999999991     0.93823199999999984
   105   7     0.74749199999999993      13.509504999999999      11.604352999999998
   106   7      9.8573949999999986      5.8515719999999991      2.5613639999999998
   107   7      2.0080979999999995      3.3105529999999996      7.7219159999999993
   108   7      10.217869999999998      9.1084189999999978      3.5214949999999994
   109   7      13.507403999999998      10.176624999999998      7.4700399999999991
   110   7      8.1310479999999981      5.1560719999999991      3.2990409999999994
   111   7      4.8926239999999988      9.7676619999999978     0.47280099999999997
   112   7      1.5708949999999997     0.34245299999999995      1.0431099999999998
   113   7      11.641072999999999      10.138281999999998      6.2862649999999993
   114   7      1.3984919999999998       6.799091999999999      6.3418829999999993
   115   7      2.7670739999999996       5.823745999999999       5.263024999999999
   116   7      8.6587379999999978      8.9118689999999976      0.7958829999999999
   117   7      4.9302119999999992      8.3357079999999986      7.5880719999999995
   118   7      11.509393999999999      9.0698369999999979      1.9916289999999999
   119   7     0.68490999999999991      8.3270659999999985      13.621930999999998
   120   7      8.6341029999999979      12.669269999999997      8.3248799999999985
   121   7      5.6101189999999992      9.4687829999999984      6.0871819999999994
   122   7       7.751237999999999      13.147246999999998      4.7894619999999994
   123   7      13.031174999999998      12.540454999999998      2.3932499999999997
   124   7     0.36084399999999994      1.8167589999999998     0.44472399999999995
   125   7      1.4092569999999998      9.7835389999999975     0.99622799999999989
   126   7      3.9860619999999995      11.521570999999998     0.78391199999999994
   127   7      11.018436999999999      3.5453449999999997      1.1298029999999997
   128   7       9.912253999999999      9.0515689999999989      11.748219999999998
   129   7      10.379332999999999      11.047387999999998      3.9843489999999995
   130   7      2.8942279999999996      10.519205999999999      11.416959999999998
   131   7      13.706161999999999      6.4159559999999995      5.0536519999999987
   132   7      10.723082999999999      4.6418129999999991      12.692520999999997
   133   7      11.649560999999999      5.6742769999999991      10.642346999999997
   134   7      10.893211999999998      1.3886689999999997      12.509542999999999
   135   7      7.4091319999999987      11.419778999999998      3.8422879999999995
   136   7      12.408076999999999      5.3994109999999989      13.779031999999999
   137   7      12.483594999999998      1.2586799999999998      4.4027629999999993
   138   7      12.682207999999997      12.758413999999998       7.755196999999999
   139   7      8.8436839999999979      6.4829769999999991      4.6137719999999991
   140   7      4.5266649999999995      9.1626529999999988      10.428890999999998
   141   7      11.416703999999998      11.065905999999998      1.9249199999999997
   142   7      6.4651869999999994     0.70272999999999985      7.8922779999999992
   143   7      5.6867949999999992      11.566511999999998      5.1099949999999987
   144   7      1.8310209999999998      1.9615109999999998      10.627185999999998
   145   7      7.9374769999999994      1.3470759999999997     0.49265899999999996
   146   7      9.3879039999999989      1.1913759999999998      11.124861999999998
   147   7      10.189492999999999      1.2431889999999999      1.2545239999999998
   148   7      13.620976999999998      4.4179779999999989      5.0730959999999987
   149   7      11.239927999999999      13.267772999999998     0.59857099999999985
   150   7      10.548872999999999      5.4538399999999987     0.72557399999999994
   151   7      10.746495999999999      7.6489019999999988      5.6075809999999988
   152   7      12.129874999999998      1.3983759999999998      6.6756859999999989
   153   7     0.15654599999999996      6.4619899999999992     0.77632099999999993
   154   7      1.4272419999999997      1.6716489999999997      8.6962289999999989
   155   7      10.552941999999998      8.0084649999999975      13.531695999999998
   156   7      4.9098489999999995      4.2216829999999987      12.672099999999999
   157   7      2.9098059999999997      13.112247999999997      13.750747999999998
   158   7      13.292321999999999      1.0633529999999998      12.412362999999997
   159   7      6.5955529999999989    0.014291999999999997      1.1322099999999997
   160   7      7.5032619999999994      13.210127999999997      6.7682789999999988
   161   7      8.8832039999999974      9.6714179999999974      6.5248549999999987
   162   7      8.6816079999999989      7.8979299999999988      12.834662999999999
   163   7     0.19670199999999996      3.8194329999999996      13.234256999999998
   164   7      12.085692999999997      5.8061979999999993      8.0736279999999976
   165   7      3.7347849999999996      2.4583839999999997      6.3058179999999995
   166   7      5.0880149999999995      8.0136459999999978      1.4459739999999999
   167   7      13.554181999999999      13.726139999999997      9.4056379999999979
   168   7      7.9348149999999995      3.9376599999999997      11.665852999999998
   169   7      9.2071519999999989      2.4959689999999997      12.628418999999997
   170   7      11.592773999999999      13.085635999999997      9.3964579999999991
   171   7      8.5260659999999984       5.759777999999999      12.791069999999998
   172   7      12.248652999999997      1.2011329999999998     0.48321499999999995
   173   7      5.6529859999999994      11.388857999999999      13.298620999999999
   174   7      2.1131659999999997      8.2677009999999989      5.1868649999999992
   175   7      13.061260999999998      11.480149999999998      11.788129999999999
   176   7      6.1747319999999988      5.6942929999999992      4.2387129999999988
   177   7      1.2080479999999998      11.587483999999998      11.297741999999998
   178   7     0.38635299999999995     0.25309099999999995      7.4052549999999995
   179   7      10.167153999999998      13.170937999999998      10.790337999999998
   180   7      2.9078499999999994       6.338919999999999      2.1436499999999996
   181   7      12.707224999999998       8.039991999999998      3.2152699999999994
   182   7      8.9824359999999981      8.4479569999999988      4.9478289999999987
   183   7      1.6823859999999997      9.4321129999999975      7.1232849999999992
   184   7      10.673346999999998      7.1241119999999993      11.697649999999998
   185   7      6.9973699999999992      7.5852399999999989      11.802419999999998
   186   7      5.8588539999999991      1.8665469999999997      0.7887519999999999
   187   7      9.3646599999999989      7.8268969999999989      9.7495549999999991
   188   7      2.9328199999999995      1.5444179999999998     0.12854199999999996
   189   7      4.7592059999999989      7.8598989999999995      5.2635049999999994
   190   7      5.6792299999999987      13.519432999999998       4.678666999999999
   191   7      7.2929419999999991      10.411881999999999      5.5648459999999993
   192   7      8.5585509999999978      12.097253999999998      13.062821999999999
   193   7      1.7658659999999997      12.986247999999998      6.4140699999999988
   194   7      3.1702469999999994       6.329432999999999      13.254580999999998
   195   7      7.3678999999999988      4.8925319999999992      8.6509509999999974
   196   7      3.3944279999999996      0.8240289999999999      1.9361259999999998
   197   7      1.6677969999999998      2.0374089999999994      2.1004189999999996
   198   7      8.8365139999999975      2.5077999999999996      4.7661319999999989
   199   7      12.591231999999998      7.0573499999999987      9.5487159999999989
   200   7      2.0976289999999995      3.3042959999999995     0.58131699999999986
   201   4      20.831978459540306      6.3777707909548367      23.477748714700855
