Li2 Fe12 S6 O18
1.0
   5.0380000000000003    0.0000000000000000    0.0000000000000003
  -2.5189999999999997    4.3630359842660020    0.0000000000000003
   0.0000000000000000    0.0000000000000000   41.3160000000000025
Fe O Li S Li
12 18 1 6 1
direct
   0.3333333333000000    0.6666666667000000    0.5073222222333333 Fe
   0.0000000000000000    0.0000000000000000    0.6184333333333334 Fe
   0.6666666667000000    0.3333333333000000    0.5628777777666667 Fe
   0.0000000000000000    0.0000000000000000    0.3815666666666667 Fe
   0.0000000000000000    0.0000000000000000    0.4517666666666667 Fe
   0.0000000000000000    0.0000000000000000    0.5482333333333334 Fe
   0.3333333333000000    0.6666666667000000    0.4371222222333334 Fe
   0.6666666667000000    0.3333333333000000    0.4926777777666666 Fe
   0.6666666667000000    0.3333333333000000    0.6593444444333334 Fe
   0.6666666667000000    0.3333333333000000    0.3962111111000000 Fe
   0.3333333333000000    0.6666666667000000    0.3406555555666667 Fe
   0.3333333333000000    0.6666666667000000    0.6037888889000000 Fe
   0.0274333333000000    0.6666666667000000    0.4722222222333334 O
   0.3059000000000000    0.3059000000000000    0.5833333333333334 O
   0.6940999999999999    0.0000000000000000    0.5833333333333334 O
   0.9725666667000000    0.3333333333000000    0.5277777777666667 O
   0.0000000000000000    0.3059000000000000    0.4166666666666667 O
   0.6940999999999999    0.6940999999999999    0.4166666666666667 O
   0.3059000000000000    0.0000000000000000    0.4166666666666667 O
   0.3333333333000000    0.3607666666999999    0.4722222222333334 O
   0.6392333332999999    0.9725666666999999    0.4722222222333334 O
   0.0000000000000000    0.6940999999999999    0.5833333333333334 O
   0.6666666667000000    0.6392333332999999    0.5277777777666667 O
   0.3607666667000000    0.0274333333000000    0.5277777777666667 O
   0.3607666667000000    0.3333333333000000    0.3611111111000000 O
   0.6666666667000000    0.0274333333000000    0.3611111111000000 O
   0.9725666667000000    0.6392333332999999    0.3611111111000000 O
   0.6392333333000000    0.6666666667000000    0.6388888889000000 O
   0.3333333332999999    0.9725666666999999    0.6388888889000000 O
   0.0274333333000000    0.3607666666999999    0.6388888889000000 O
  -0.3236441152914508    0.2421520234861735    0.7280224384308163 Li
   0.0467460005847776    0.5859493255046088    0.7231816987657954 S
   0.2948603316685410    0.6851950579381141    0.7159205892682642 S
   0.4933517965355517    0.6851950579381141    0.7086594797707331 S
   0.6422203951858098    0.5859493255046088    0.7159205892682642 S
   0.7910889938360678    0.4867035930711035    0.7231816987657954 S
   0.9895804587030785    0.4867035930711035    0.7159205892682642 S
   1.0657961387776242    0.2421520234861735    0.7280224384308163 Li
