Al12 O18
1.0
   4.7590000000000003    0.0000000000000000    0.0000000000000003
  -2.3794999999999997    4.1214148966101440    0.0000000000000003
   0.0000000000000000    0.0000000000000000   12.9909999999999997
Al O
12 18
direct
   0.3333333333000000    0.6666666667000000    0.5188666667000000 Al
   0.0000000000000000    0.0000000000000000    0.8522000000000001 Al
   0.6666666667000000    0.3333333333000000    0.6855333333000000 Al
   0.0000000000000000    0.0000000000000000    0.1478000000000000 Al
   0.0000000000000000    0.0000000000000000    0.3522000000000000 Al
   0.0000000000000000    0.0000000000000000    0.6477999999999999 Al
   0.3333333333000000    0.6666666667000000    0.3144666667000000 Al
   0.6666666667000000    0.3333333333000000    0.4811333333000000 Al
   0.6666666667000000    0.3333333333000000    0.9811333333000000 Al
   0.6666666667000000    0.3333333333000000    0.1855333333000000 Al
   0.3333333333000000    0.6666666667000000    0.0188666666999999 Al
   0.3333333333000000    0.6666666667000000    0.8144666667000000 Al
   0.0269333333000000    0.6666666667000000    0.4166666667000000 O
   0.3064000000000000    0.3064000000000000    0.7500000000000000 O
   0.6936000000000000    0.0000000000000000    0.7500000000000000 O
   0.9730666667000000    0.3333333333000000    0.5833333333000000 O
   0.0000000000000000    0.3064000000000000    0.2500000000000000 O
   0.6936000000000000    0.6936000000000000    0.2500000000000000 O
   0.3064000000000000    0.0000000000000000    0.2500000000000000 O
   0.3333333333000000    0.3602666667000000    0.4166666667000000 O
   0.6397333333000000    0.9730666667000000    0.4166666667000000 O
   0.0000000000000000    0.6936000000000000    0.7500000000000000 O
   0.6666666667000000    0.6397333333000000    0.5833333333000000 O
   0.3602666667000000    0.0269333333000000    0.5833333333000000 O
   0.3602666667000000    0.3333333333000000    0.0833333333000000 O
   0.6666666667000000    0.0269333333000000    0.0833333333000000 O
   0.9730666667000000    0.6397333333000000    0.0833333333000000 O
   0.6397333333000000    0.6666666667000000    0.9166666667000000 O
   0.3333333333000000    0.9730666667000000    0.9166666667000000 O
   0.0269333333000000    0.3602666667000000    0.9166666667000000 O
