MoS2 + Basalt Fiber combined system
MoS2 nanoflake on BF surface, 3.0 A initial gap

255 atoms
11 atom types

0.0000000000  13.7882080000  xlo xhi
0.0000000000  13.7882080000  ylo yhi
-2.0000000000  33.4777487147  zlo zhi

Masses

  1  28.085
  2  26.982
  3  55.845
  4  40.078
  5  24.305
  6  22.990
  7  15.999
  8  15.999
  9  47.867
  10  95.950
  11  32.065

Atoms # charge

  1  8  5.1642370000  13.1086470000  10.0928850000
  2  8  8.1848250000  2.2383620000  2.6042700000
  3  8  0.8974240000  11.9921560000  7.9173960000
  4  8  9.4364100000  0.3436920000  13.4235570000
  5  8  11.3043620000  2.5207660000  2.8297000000
  6  8  2.9259270000  4.9479670000  7.0492480000
  7  8  5.8326360000  3.6138770000  8.7352320000
  8  8  2.2822670000  3.9543350000  4.7522640000
  9  8  6.0961770000  10.7183710000  2.5072810000
  10  8  6.8829890000  8.0221040000  0.5643210000
  11  8  8.8707640000  3.0791330000  0.8247020000
  12  8  12.5959700000  13.3078670000  11.1120910000
  13  8  3.8296650000  1.4875660000  9.6650500000
  14  8  6.0512820000  2.0107420000  6.3764230000
  15  8  0.7619220000  12.6569520000  3.6890140000
  16  8  9.1240310000  4.2885790000  7.1520750000
  17  8  7.1604980000  2.6711680000  13.0039750000
  18  8  10.4584470000  12.5877050000  12.6777440000
  19  8  8.0832060000  11.6974430000  1.1868840000
  20  8  2.0893510000  0.4752020000  4.6937800000
  21  8  5.7274370000  3.6606040000  10.9366690000
  22  8  4.6858140000  4.0048860000  7.1445990000
  23  8  2.0108990000  11.6890530000  1.0416630000
  24  8  13.5964420000  10.6582510000  2.7641520000
  25  8  0.1774030000  11.2382950000  9.6213240000
  26  8  9.7319560000  10.5894150000  0.9595680000
  27  8  5.1902280000  1.7509850000  11.1022670000
  28  8  8.6069910000  5.0501710000  0.9818450000
  29  8  4.2666030000  4.3317770000  9.7496200000
  30  8  9.0203150000  11.9543740000  6.4317930000
  31  8  1.3996180000  9.8026000000  10.3000600000
  32  8  7.6464560000  10.9309080000  7.4636130000
  33  8  6.9871920000  6.0151920000  0.3174910000
  34  8  1.7393800000  13.5023710000  8.9184340000
  35  8  4.6391720000  7.0889760000  12.1256830000
  36  8  3.2656920000  5.8648160000  10.5491740000
  37  1  3.6050630000  1.4482210000  3.8244160000
  38  1  2.6224030000  12.9851880000  11.0903520000
  39  1  8.6700000000  11.8790140000  11.0779120000
  40  1  2.8915930000  12.0564890000  7.7809070000
  41  1  11.5414860000  12.6592680000  3.7214250000
  42  1  1.3139160000  2.6864520000  5.9538390000
  43  1  11.5517070000  11.2883440000  13.7307330000
  44  1  6.5895340000  5.9186910000  2.2785370000
  45  1  1.9113060000  4.8072260000  12.9447120000
  46  1  4.4841490000  7.1874140000  9.6741610000
  47  1  4.9029170000  13.1635030000  0.1096280000
  48  1  3.5501850000  7.0492860000  3.8963220000
  49  3  3.6170070000  0.1185220000  8.2243040000
  50  3  7.0069910000  1.1239180000  4.0816720000
  51  3  12.9997010000  2.9803430000  1.8367240000
  52  3  6.8137420000  13.2218510000  3.0303670000
  53  3  8.8380300000  10.4055060000  2.8790730000
  54  3  10.0517620000  5.0804280000  8.7370960000
  55  3  8.7358160000  7.0027120000  1.3725860000
  56  3  11.1447400000  4.4740500000  3.2270260000
  57  2  0.4494260000  8.1868550000  9.6102930000
  58  2  0.5191950000  6.8589580000  3.0310640000
  59  2  9.1261620000  2.6823980000  9.7817510000
  60  2  5.1302370000  12.7775400000  2.0533310000
  61  2  4.6332380000  2.0815540000  13.0111920000
  62  2  12.0969380000  3.5565530000  9.0999970000
  63  2  10.9578090000  7.3836980000  7.5786450000
  64  2  3.0996880000  1.1150760000  11.9706390000
  65  5  12.3385390000  8.7258840000  5.0555820000
  66  5  4.7715140000  9.9228260000  12.2624900000
  67  5  11.9673940000  11.0372830000  8.4802980000
  68  5  1.2489280000  2.2836920000  12.5070770000
  69  5  8.6756600000  13.5794540000  1.5042590000
  70  5  9.7954920000  13.7756600000  3.1478820000
  71  6  7.5660560000  9.5399950000  8.9893780000
  72  6  3.5150950000  9.7961200000  2.8410920000
  73  6  4.4830480000  10.3774520000  8.8407070000
  74  6  11.8986520000  9.1027640000  7.9772760000
  75  9  1.2240360000  5.0387960000  3.4504820000
  76  9  3.5648460000  13.2340920000  5.5765440000
  77  7  12.4229380000  8.5347500000  11.1689130000
  78  7  6.9641270000  7.9364670000  6.7963410000
  79  7  2.3217340000  10.1016350000  4.4166870000
  80  7  0.6533700000  8.7966520000  2.5614840000
  81  7  12.9127600000  12.9886040000  13.0899520000
  82  7  5.2088200000  13.7769980000  12.0274960000
  83  7  6.7468050000  13.0482220000  13.0756760000
  84  7  11.6734840000  4.0360380000  5.3207410000
  85  7  12.5922920000  4.9362940000  1.9275210000
  86  7  7.4619620000  12.9709700000  9.9168120000
  87  7  8.2182700000  1.3441290000  8.6062660000
  88  7  0.0138720000  2.2196830000  7.3973840000
  89  7  12.3247800000  10.3432670000  10.3210340000
  90  7  9.6498400000  4.6552950000  4.5422510000
  91  7  11.1144630000  10.9159610000  11.8038090000
  92  7  12.7036070000  7.0725560000  6.6544750000
  93  7  11.0234160000  8.9374940000  9.7669300000
  94  7  10.7728060000  12.2739010000  5.5258730000
  95  7  4.7798220000  1.7731820000  7.9295810000
  96  7  0.2845950000  5.8562210000  7.7092890000
  97  7  3.8859760000  8.1558960000  13.6402630000
  98  7  0.5056870000  11.2387880000  5.0757790000
  99  7  1.7800240000  7.1895590000  10.7171920000
  100  7  2.8221690000  8.4673710000  1.5166570000
  101  7  0.4143810000  7.9702090000  7.6255300000
  102  7  8.7516240000  10.1087640000  12.9865920000
  103  7  6.8829960000  5.2415360000  10.5589680000
  104  7  4.3673970000  5.6956650000  0.9382320000
  105  7  0.7474920000  13.5095050000  11.6043530000
  106  7  9.8573950000  5.8515720000  2.5613640000
  107  7  2.0080980000  3.3105530000  7.7219160000
  108  7  10.2178700000  9.1084190000  3.5214950000
  109  7  13.5074040000  10.1766250000  7.4700400000
  110  7  8.1310480000  5.1560720000  3.2990410000
  111  7  4.8926240000  9.7676620000  0.4728010000
  112  7  1.5708950000  0.3424530000  1.0431100000
  113  7  11.6410730000  10.1382820000  6.2862650000
  114  7  1.3984920000  6.7990920000  6.3418830000
  115  7  2.7670740000  5.8237460000  5.2630250000
  116  7  8.6587380000  8.9118690000  0.7958830000
  117  7  4.9302120000  8.3357080000  7.5880720000
  118  7  11.5093940000  9.0698370000  1.9916290000
  119  7  0.6849100000  8.3270660000  13.6219310000
  120  7  8.6341030000  12.6692700000  8.3248800000
  121  7  5.6101190000  9.4687830000  6.0871820000
  122  7  7.7512380000  13.1472470000  4.7894620000
  123  7  13.0311750000  12.5404550000  2.3932500000
  124  7  0.3608440000  1.8167590000  0.4447240000
  125  7  1.4092570000  9.7835390000  0.9962280000
  126  7  3.9860620000  11.5215710000  0.7839120000
  127  7  11.0184370000  3.5453450000  1.1298030000
  128  7  9.9122540000  9.0515690000  11.7482200000
  129  7  10.3793330000  11.0473880000  3.9843490000
  130  7  2.8942280000  10.5192060000  11.4169600000
  131  7  13.7061620000  6.4159560000  5.0536520000
  132  7  10.7230830000  4.6418130000  12.6925210000
  133  7  11.6495610000  5.6742770000  10.6423470000
  134  7  10.8932120000  1.3886690000  12.5095430000
  135  7  7.4091320000  11.4197790000  3.8422880000
  136  7  12.4080770000  5.3994110000  13.7790320000
  137  7  12.4835950000  1.2586800000  4.4027630000
  138  7  12.6822080000  12.7584140000  7.7551970000
  139  7  8.8436840000  6.4829770000  4.6137720000
  140  7  4.5266650000  9.1626530000  10.4288910000
  141  7  11.4167040000  11.0659060000  1.9249200000
  142  7  6.4651870000  0.7027300000  7.8922780000
  143  7  5.6867950000  11.5665120000  5.1099950000
  144  7  1.8310210000  1.9615110000  10.6271860000
  145  7  7.9374770000  1.3470760000  0.4926590000
  146  7  9.3879040000  1.1913760000  11.1248620000
  147  7  10.1894930000  1.2431890000  1.2545240000
  148  7  13.6209770000  4.4179780000  5.0730960000
  149  7  11.2399280000  13.2677730000  0.5985710000
  150  7  10.5488730000  5.4538400000  0.7255740000
  151  7  10.7464960000  7.6489020000  5.6075810000
  152  7  12.1298750000  1.3983760000  6.6756860000
  153  7  0.1565460000  6.4619900000  0.7763210000
  154  7  1.4272420000  1.6716490000  8.6962290000
  155  7  10.5529420000  8.0084650000  13.5316960000
  156  7  4.9098490000  4.2216830000  12.6721000000
  157  7  2.9098060000  13.1122480000  13.7507480000
  158  7  13.2923220000  1.0633530000  12.4123630000
  159  7  6.5955530000  0.0142920000  1.1322100000
  160  7  7.5032620000  13.2101280000  6.7682790000
  161  7  8.8832040000  9.6714180000  6.5248550000
  162  7  8.6816080000  7.8979300000  12.8346630000
  163  7  0.1967020000  3.8194330000  13.2342570000
  164  7  12.0856930000  5.8061980000  8.0736280000
  165  7  3.7347850000  2.4583840000  6.3058180000
  166  7  5.0880150000  8.0136460000  1.4459740000
  167  7  13.5541820000  13.7261400000  9.4056380000
  168  7  7.9348150000  3.9376600000  11.6658530000
  169  7  9.2071520000  2.4959690000  12.6284190000
  170  7  11.5927740000  13.0856360000  9.3964580000
  171  7  8.5260660000  5.7597780000  12.7910700000
  172  7  12.2486530000  1.2011330000  0.4832150000
  173  7  5.6529860000  11.3888580000  13.2986210000
  174  7  2.1131660000  8.2677010000  5.1868650000
  175  7  13.0612610000  11.4801500000  11.7881300000
  176  7  6.1747320000  5.6942930000  4.2387130000
  177  7  1.2080480000  11.5874840000  11.2977420000
  178  7  0.3863530000  0.2530910000  7.4052550000
  179  7  10.1671540000  13.1709380000  10.7903380000
  180  7  2.9078500000  6.3389200000  2.1436500000
  181  7  12.7072250000  8.0399920000  3.2152700000
  182  7  8.9824360000  8.4479570000  4.9478290000
  183  7  1.6823860000  9.4321130000  7.1232850000
  184  7  10.6733470000  7.1241120000  11.6976500000
  185  7  6.9973700000  7.5852400000  11.8024200000
  186  7  5.8588540000  1.8665470000  0.7887520000
  187  7  9.3646600000  7.8268970000  9.7495550000
  188  7  2.9328200000  1.5444180000  0.1285420000
  189  7  4.7592060000  7.8598990000  5.2635050000
  190  7  5.6792300000  13.5194330000  4.6786670000
  191  7  7.2929420000  10.4118820000  5.5648460000
  192  7  8.5585510000  12.0972540000  13.0628220000
  193  7  1.7658660000  12.9862480000  6.4140700000
  194  7  3.1702470000  6.3294330000  13.2545810000
  195  7  7.3679000000  4.8925320000  8.6509510000
  196  7  3.3944280000  0.8240290000  1.9361260000
  197  7  1.6677970000  2.0374090000  2.1004190000
  198  7  8.8365140000  2.5078000000  4.7661320000
  199  7  12.5912320000  7.0573500000  9.5487160000
  200  7  2.0976290000  3.3042960000  0.5813170000
  201  4  20.8319784595  6.3777707910  23.4777487147
  202  10  0.8374373333  3.2452502987  18.3682080000
  203  10  2.9441040000  5.0696771494  18.3682080000
  204  11  2.9441040000  5.0696771494  19.9482080000
  205  11  3.4707706667  4.1574637240  16.7882080000
  206  11  0.8374373333  3.2452502987  19.9482080000
  207  11  0.8374373333  3.2452502987  16.7882080000
  208  10  2.4174373333  5.9818905747  18.3682080000
  209  10  4.5241040000  7.8063174253  18.3682080000
  210  11  4.5241040000  7.8063174253  19.9482080000
  211  11  5.0507706667  6.8941040000  16.7882080000
  212  11  2.4174373333  5.9818905747  19.9482080000
  213  11  2.4174373333  5.9818905747  16.7882080000
  214  10  3.9974373333  8.7185308506  18.3682080000
  215  10  6.1041040000  10.5429577013  18.3682080000
  216  11  6.1041040000  10.5429577013  19.9482080000
  217  11  6.6307706667  9.6307442760  16.7882080000
  218  11  3.9974373333  8.7185308506  19.9482080000
  219  11  3.9974373333  8.7185308506  16.7882080000
  220  10  3.9974373333  3.2452502987  18.3682080000
  221  10  6.1041040000  5.0696771494  18.3682080000
  222  11  6.1041040000  5.0696771494  19.9482080000
  223  11  6.6307706667  4.1574637240  16.7882080000
  224  11  3.9974373333  3.2452502987  19.9482080000
  225  11  3.9974373333  3.2452502987  16.7882080000
  226  10  5.5774373333  5.9818905747  18.3682080000
  227  10  7.6841040000  7.8063174253  18.3682080000
  228  11  7.6841040000  7.8063174253  19.9482080000
  229  11  8.2107706667  6.8941040000  16.7882080000
  230  11  5.5774373333  5.9818905747  19.9482080000
  231  11  5.5774373333  5.9818905747  16.7882080000
  232  10  7.1574373333  8.7185308506  18.3682080000
  233  10  9.2641040000  10.5429577013  18.3682080000
  234  11  9.2641040000  10.5429577013  19.9482080000
  235  11  9.7907706667  9.6307442760  16.7882080000
  236  11  7.1574373333  8.7185308506  19.9482080000
  237  11  7.1574373333  8.7185308506  16.7882080000
  238  10  7.1574373333  3.2452502987  18.3682080000
  239  10  9.2641040000  5.0696771494  18.3682080000
  240  11  9.2641040000  5.0696771494  19.9482080000
  241  11  9.7907706667  4.1574637240  16.7882080000
  242  11  7.1574373333  3.2452502987  19.9482080000
  243  11  7.1574373333  3.2452502987  16.7882080000
  244  10  8.7374373333  5.9818905747  18.3682080000
  245  10  10.8441040000  7.8063174253  18.3682080000
  246  11  10.8441040000  7.8063174253  19.9482080000
  247  11  11.3707706667  6.8941040000  16.7882080000
  248  11  8.7374373333  5.9818905747  19.9482080000
  249  11  8.7374373333  5.9818905747  16.7882080000
  250  10  10.3174373333  8.7185308506  18.3682080000
  251  10  12.4241040000  10.5429577013  18.3682080000
  252  11  12.4241040000  10.5429577013  19.9482080000
  253  11  12.9507706667  9.6307442760  16.7882080000
  254  11  10.3174373333  8.7185308506  19.9482080000
  255  11  10.3174373333  8.7185308506  16.7882080000
