Li2 S6
1.0
  20.0000000000000000    0.0000000000000000    0.0000000000000012
   0.0000000000000032   20.0000000000000000    0.0000000000000012
   0.0000000000000000    0.0000000000000000   20.0000000000000000
Li S Li
1 6 1
direct
   0.3250000000000000    0.4250000000000000    0.5250000000000000 Li
   0.3749999999999999    0.5000000000000000    0.5150000000000000 S
   0.4249999999999999    0.5216506350946110    0.4999999999999999 S
   0.4749999999999999    0.5216506350946110    0.4849999999999999 S
   0.5249999999999999    0.5000000000000000    0.4999999999999999 S
   0.5750000000000000    0.4783493649053891    0.5150000000000000 S
   0.6249999999999999    0.4783493649053891    0.4999999999999999 S
   0.6749999999999999    0.4250000000000000    0.5249999999999999 Li
