Mo S 
 1.0000000000000000
     6.3200000000000003    0.0000000000000000    0.0000000000000000
     0.0000000000000000   12.3000000000000007    0.0000000000000000
     0.0000000000000000    0.0000000000000000   24.1221342531960836
 Mo  S  
  16  32
Direct
  0.2499999999999999  0.2500000000000000  0.3109177621381608
 -0.0000000000000002  0.7500000000000001  0.3487342097105287
  0.7499999999999997  0.2500000000000000  0.3109177621381608
 -0.0000000000000002  0.2500000000000000  0.4243671048552644
  0.7499999999999997  0.7500000000000001  0.4621835524276323
  0.2499999999999999  0.7500000000000001  0.6890822378618393
  0.4999999999999997  0.2500000000000000  0.6512657902894716
  0.7499999999999997  0.2500000000000000  0.5378164475723679
 -0.0000000000000004  0.7500000000000001  0.5756328951447359
  0.2499999999999998  0.2500000000000000  0.5378164475723679
  0.4999999999999997  0.7500000000000001  0.5756328951447359
 -0.0000000000000004  0.2500000000000000  0.6512657902894716
  0.4999999999999998  0.7500000000000001  0.3487342097105287
  0.2499999999999999  0.7500000000000001  0.4621835524276323
  0.7499999999999997  0.7500000000000001  0.6890822378618393
  0.4999999999999998  0.2500000000000000  0.4243671048552644
 -0.0000000000000004  0.6300000000000000  0.6512657902894716
  0.7499999999999997  0.1300000000000000  0.6890822378618393
  0.7499999999999997  0.1300000000000000  0.4621835524276323
 -0.0000000000000002  0.6300000000000000  0.4243671048552644
 -0.0000000000000004  0.1300000000000000  0.5756328951447359
  0.7499999999999997  0.3700000000000000  0.4621835524276323
 -0.0000000000000002  0.8700000000000000  0.4243671048552644
  0.7499999999999997  0.8700000000000000  0.5378164475723679
  0.7499999999999997  0.8700000000000000  0.3109177621381608
 -0.0000000000000004  0.3700000000000000  0.5756328951447359
  0.7499999999999997  0.6300000000000000  0.5378164475723679
 -0.0000000000000002  0.3700000000000000  0.3487342097105287
  0.4999999999999997  0.8700000000000000  0.6512657902894716
 -0.0000000000000002  0.1300000000000000  0.3487342097105287
  0.4999999999999998  0.1300000000000000  0.3487342097105287
  0.2499999999999999  0.6300000000000000  0.3109177621381608
  0.4999999999999998  0.3700000000000000  0.3487342097105287
  0.2499999999999999  0.8700000000000000  0.3109177621381608
  0.2499999999999999  0.1300000000000000  0.4621835524276323
  0.4999999999999998  0.6300000000000000  0.4243671048552644
  0.2499999999999999  0.3700000000000000  0.4621835524276323
  0.7499999999999997  0.6300000000000000  0.3109177621381608
  0.4999999999999998  0.8700000000000000  0.4243671048552644
  0.2499999999999998  0.6300000000000000  0.5378164475723679
  0.4999999999999997  0.3700000000000000  0.5756328951447359
  0.2499999999999998  0.8700000000000000  0.5378164475723679
  0.2499999999999999  0.1300000000000000  0.6890822378618393
  0.4999999999999997  0.6300000000000000  0.6512657902894716
  0.2499999999999999  0.3700000000000000  0.6890822378618393
  0.7499999999999997  0.3700000000000000  0.6890822378618393
  0.4999999999999997  0.1300000000000000  0.5756328951447359
 -0.0000000000000004  0.8700000000000000  0.6512657902894716
