Fe12 O18
1.0
   5.0380000000000003    0.0000000000000000    0.0000000000000003
  -2.5189999999999997    4.3630359842660020    0.0000000000000003
   0.0000000000000000    0.0000000000000000   13.7720000000000002
Fe O
12 18
direct
   0.3333333333000000    0.6666666667000000    0.5219666667000000 Fe
   0.0000000000000000    0.0000000000000000    0.8552999999999999 Fe
   0.6666666667000000    0.3333333333000000    0.6886333333000000 Fe
   0.0000000000000000    0.0000000000000000    0.1447000000000000 Fe
   0.0000000000000000    0.0000000000000000    0.3553000000000000 Fe
   0.0000000000000000    0.0000000000000000    0.6447000000000001 Fe
   0.3333333333000000    0.6666666667000000    0.3113666667000000 Fe
   0.6666666667000000    0.3333333333000000    0.4780333333000000 Fe
   0.6666666667000000    0.3333333333000000    0.9780333333000000 Fe
   0.6666666667000000    0.3333333333000000    0.1886333333000000 Fe
   0.3333333333000000    0.6666666667000000    0.0219666667000000 Fe
   0.3333333333000000    0.6666666667000000    0.8113666667000000 Fe
   0.0274333333000000    0.6666666667000000    0.4166666667000000 O
   0.3059000000000000    0.3059000000000000    0.7500000000000000 O
   0.6940999999999999    0.0000000000000000    0.7500000000000000 O
   0.9725666667000000    0.3333333333000000    0.5833333333000000 O
   0.0000000000000000    0.3059000000000000    0.2500000000000000 O
   0.6940999999999999    0.6940999999999999    0.2500000000000000 O
   0.3059000000000000    0.0000000000000000    0.2500000000000000 O
   0.3333333333000000    0.3607666667000000    0.4166666667000000 O
   0.6392333333000000    0.9725666667000000    0.4166666667000000 O
   0.0000000000000000    0.6940999999999999    0.7500000000000000 O
   0.6666666667000000    0.6392333333000000    0.5833333333000000 O
   0.3607666667000000    0.0274333333000000    0.5833333333000000 O
   0.3607666667000000    0.3333333333000000    0.0833333333000000 O
   0.6666666667000000    0.0274333333000000    0.0833333333000000 O
   0.9725666667000000    0.6392333333000000    0.0833333333000000 O
   0.6392333333000000    0.6666666667000000    0.9166666667000000 O
   0.3333333333000000    0.9725666667000000    0.9166666667000000 O
   0.0274333333000000    0.3607666667000000    0.9166666667000000 O
