Li Mo S 
 1.0000000000000000
     9.4800000000000004    0.0000000000000000    0.0000000000000000
    -4.7400000000000002    8.2099208278764788    0.0000000000000000
     0.0000000000000000    0.0000000000000000   32.1019999999999968
 Li  Mo  S  
   2  18  37
Direct
  0.4999999999999999  0.5000000000000000  0.6884929287894835
  0.4999999999999999  0.5000000000000000  0.5950408074263287
  0.8888888888888887  0.7777777777777777  0.4711855959130274
  0.7777777777777777  0.8888888888888888  0.2796087471185596
  0.8888888888888887  0.4444444444444444  0.4711855959130274
  0.7777777777777778  0.5555555555555556  0.2796087471185596
  0.8888888888888887  0.1111111111111111  0.4711855959130274
  0.7777777777777778  0.2222222222222222  0.2796087471185596
  0.5555555555555552  0.7777777777777777  0.4711855959130274
  0.4444444444444444  0.8888888888888888  0.2796087471185596
  0.5555555555555552  0.4444444444444444  0.4711855959130274
  0.4444444444444444  0.5555555555555556  0.2796087471185596
  0.5555555555555552  0.1111111111111111  0.4711855959130274
  0.4444444444444444  0.2222222222222222  0.2796087471185596
  0.1111111111111111  0.2222222222222222  0.2796087471185596
  0.2222222222222221  0.4444444444444444  0.4711855959130274
  0.2222222222222221  0.1111111111111111  0.4711855959130274
  0.2222222222222220  0.7777777777777777  0.4711855959130274
  0.1111111111111110  0.8888888888888888  0.2796087471185596
  0.1111111111111111  0.5555555555555556  0.2796087471185596
  0.8888888888888887  0.1111111111111111  0.2336303034078874
  0.7777777777777778  0.2222222222222222  0.4252071522023551
  0.8888888888888887  0.1111111111111111  0.3255871908292319
  0.7777777777777778  0.2222222222222222  0.5171640396236995
  0.1111111111111111  0.2222222222222222  0.5171640396236995
  0.2222222222222221  0.1111111111111111  0.3255871908292319
  0.8888888888888887  0.4444444444444444  0.2336303034078874
  0.1111111111111110  0.8888888888888888  0.4252071522023551
  0.8888888888888887  0.4444444444444444  0.3255871908292319
  0.1111111111111111  0.2222222222222222  0.4252071522023551
  0.2222222222222221  0.1111111111111111  0.2336303034078874
  0.8888888888888887  0.7777777777777777  0.2336303034078874
  0.7777777777777777  0.8888888888888888  0.4252071522023551
  0.8888888888888887  0.7777777777777777  0.3255871908292319
  0.7777777777777777  0.8888888888888888  0.5171640396236995
  0.7777777777777778  0.5555555555555556  0.4252071522023551
  0.7777777777777778  0.5555555555555556  0.5171640396236995
  0.4444444444444444  0.8888888888888888  0.5171640396236995
  0.5555555555555552  0.7777777777777777  0.3255871908292319
  0.2222222222222220  0.7777777777777777  0.3255871908292319
  0.1111111111111110  0.8888888888888888  0.5171640396236995
  0.5555555555555552  0.1111111111111111  0.2336303034078874
  0.4444444444444444  0.2222222222222222  0.4252071522023551
  0.5555555555555552  0.1111111111111111  0.3255871908292319
  0.4444444444444444  0.2222222222222222  0.5171640396236995
  0.1111111111111111  0.5555555555555556  0.5171640396236995
  0.2222222222222220  0.7777777777777777  0.2336303034078874
  0.2222222222222221  0.4444444444444444  0.3255871908292319
  0.4444444444444444  0.5555555555555556  0.4252071522023551
  0.4999999999999999  0.5000000000000000  0.6417668681079061
  0.4444444444444444  0.5555555555555556  0.5171640396236995
  0.1111111111111111  0.5555555555555556  0.4252071522023551
  0.2222222222222221  0.4444444444444444  0.2336303034078874
  0.5555555555555552  0.7777777777777777  0.2336303034078874
  0.4444444444444444  0.8888888888888888  0.4252071522023551
  0.5555555555555552  0.4444444444444444  0.2336303034078874
  0.5555555555555552  0.4444444444444444  0.3255871908292319
