Li2 Si12 S6 O12
1.0
   4.9160000000000004    0.0000000000000000    0.0000000000000003
  -2.4580000000000002    4.2573808850043013    0.0000000000000003
   0.0000000000000000    0.0000000000000000   27.0250000000000021
Si O Si O Li S Li
6 6 6 6 1 6 1
direct
  -0.0000000000000000    0.4697000000000000    0.4787640817301768 Si
   0.5303000000000000    0.5303000000000000    0.4120974150701767 Si
  -0.0000000000000000    0.4697000000000000    0.4120974150701767 Si
   0.5303000000000000    0.5303000000000000    0.3454307483901767 Si
   0.4697000000000001    0.0000000000000000    0.4787640817301768 Si
   0.4697000000000001    0.0000000000000000    0.3454307483901767 Si
   0.2669000000000000    0.4134999999999999    0.4549440817301768 O
   0.5864999999999999    0.8533999999999997    0.3882774150701767 O
   0.7331000000000000    0.1466000000000000    0.4359174150701767 O
   0.8533999999999997    0.5865000000000000    0.3692507483901768 O
   0.4134999999999999    0.2668999999999999    0.3025840817301767 O
   0.1465999999999999    0.7331000000000000    0.3216107483901767 O
  -0.0000000000000000    0.4697000000000000    0.6787640817301769 Si
   0.5303000000000000    0.5303000000000000    0.6120974150701768 Si
  -0.0000000000000000    0.4697000000000000    0.6120974150701769 Si
   0.5303000000000000    0.5303000000000000    0.5454307483901768 Si
   0.4697000000000001    0.0000000000000000    0.6787640817301769 Si
   0.4697000000000001    0.0000000000000000    0.5454307483901768 Si
   0.2669000000000000    0.4134999999999999    0.6549440817301768 O
   0.5864999999999999    0.8533999999999997    0.5882774150701767 O
   0.7331000000000000    0.1466000000000000    0.6359174150701767 O
   0.8533999999999997    0.5865000000000000    0.5692507483901768 O
   0.4134999999999999    0.2668999999999999    0.5025840817301769 O
   0.1465999999999999    0.7331000000000000    0.5216107483901767 O
  -0.3440844289744363    0.2357530297647157    0.7837594563832758 Li
   0.0354976303795992    0.5880823234117614    0.7763589013416478 S
   0.2897693960427399    0.6897910296770177    0.7652580687792054 S
   0.4931868085732525    0.6897910296770177    0.7541572362167634 S
   0.6457498679711370    0.5880823234117614    0.7652580687792054 S
   0.7983129273690215    0.4863736171465052    0.7763589013416476 S
   1.0017303398995341    0.4863736171465052    0.7652580687792054 S
   1.0798374587391519    0.2357530297647157    0.7837594563832758 Li
