Li Mo S 
 1.0000000000000000
     6.3200000000000003    0.0000000000000000    0.0000000000000000
     0.0000000000000000   12.3000000000000007    0.0000000000000000
     0.0000000000000000    0.0000000000000000   29.4221342531960843
 Li  Mo  S  
   2  16  36
Direct
  0.8955696202531644  0.4214222478905602  0.6601198297192287
  0.1044303797468355  0.4214222478905602  0.6601198297192287
  0.7499999999999997  0.7500000000000001  0.5649533820406126
 -0.0000000000000004  0.2500000000000000  0.5339490566076094
 -0.0000000000000004  0.7500000000000001  0.4719404057416026
  0.7499999999999997  0.2500000000000000  0.4409360803085990
  0.7499999999999997  0.7500000000000001  0.3789274294425922
 -0.0000000000000002  0.2500000000000000  0.3479231040095888
 -0.0000000000000002  0.7500000000000001  0.2859144531435820
  0.7499999999999997  0.2500000000000000  0.2549101277105785
  0.2499999999999999  0.7500000000000001  0.5649533820406126
  0.4999999999999997  0.2500000000000000  0.5339490566076094
  0.4999999999999997  0.7500000000000001  0.4719404057416026
  0.2499999999999999  0.2500000000000000  0.2549101277105785
  0.4999999999999998  0.2500000000000000  0.3479231040095888
  0.2499999999999999  0.7500000000000001  0.3789274294425922
  0.4999999999999998  0.7500000000000001  0.2859144531435820
  0.2499999999999998  0.2500000000000000  0.4409360803085990
  0.4999999999999997  0.1300000000000000  0.4719404057416026
  0.2499999999999999  0.8700000000000000  0.2549101277105785
  0.4999999999999998  0.3700000000000000  0.2859144531435820
 -0.0000000000000004  0.1300000000000000  0.4719404057416026
  0.7499999999999997  0.6300000000000000  0.4409360803085990
 -0.0000000000000004  0.3700000000000000  0.4719404057416026
  0.7499999999999997  0.8700000000000000  0.4409360803085990
  0.2499999999999999  0.6300000000000000  0.2549101277105785
  0.7499999999999997  0.1300000000000000  0.5649533820406126
 -0.0000000000000004  0.6300000000000000  0.5339490566076094
  0.7499999999999997  0.3700000000000000  0.5649533820406126
 -0.0000000000000004  0.8700000000000000  0.5339490566076094
  0.2626582278481016  0.5433734674027554  0.6431258212051901
  0.4208860759493671  0.5785777521094398  0.6431258212051901
  0.5791139240506329  0.5785777521094398  0.6431258212051901
  0.4999999999999998  0.1300000000000000  0.2859144531435820
 -0.0000000000000002  0.8700000000000000  0.3479231040095888
 -0.0000000000000002  0.6300000000000000  0.3479231040095888
  0.7499999999999997  0.1300000000000000  0.3789274294425922
  0.2499999999999998  0.6300000000000000  0.4409360803085990
  0.4999999999999997  0.3700000000000000  0.4719404057416026
  0.2499999999999998  0.8700000000000000  0.4409360803085990
  0.4999999999999998  0.8700000000000000  0.3479231040095888
  0.2499999999999999  0.3700000000000000  0.3789274294425922
  0.2499999999999999  0.1300000000000000  0.5649533820406126
  0.4999999999999997  0.6300000000000000  0.5339490566076094
  0.2499999999999999  0.3700000000000000  0.5649533820406126
  0.4999999999999997  0.8700000000000000  0.5339490566076094
  0.4999999999999998  0.6300000000000000  0.3479231040095888
  0.2499999999999999  0.1300000000000000  0.3789274294425922
  0.7373417721518990  0.5433734674027554  0.6431258212051901
  0.7499999999999997  0.6300000000000000  0.2549101277105785
 -0.0000000000000002  0.3700000000000000  0.2859144531435820
  0.7499999999999997  0.8700000000000000  0.2549101277105785
  0.7499999999999997  0.3700000000000000  0.3789274294425922
 -0.0000000000000002  0.1300000000000000  0.2859144531435820
