Li Mo S 
 1.0000000000000000
     6.3200000000000003    0.0000000000000000    0.0000000000000000
     0.0000000000000000   12.3000000000000007    0.0000000000000000
     0.0000000000000000    0.0000000000000000   32.1221342531960801
 Li  Mo  S  
   2  16  33
Direct
  0.4999999999999999  0.5000000000000000  0.6886881823861059
  0.4999999999999999  0.5000000000000000  0.5952946371019378
  0.7499999999999997  0.7500000000000001  0.5174666826984642
 -0.0000000000000004  0.2500000000000000  0.4890684007496599
 -0.0000000000000004  0.7500000000000001  0.4322718368520512
  0.7499999999999997  0.2500000000000000  0.4038735549032468
  0.7499999999999997  0.7500000000000001  0.3470769910056381
 -0.0000000000000002  0.2500000000000000  0.3186787090568337
  0.7499999999999997  0.2500000000000000  0.2334838632104206
  0.2499999999999999  0.7500000000000001  0.5174666826984642
  0.4999999999999997  0.2500000000000000  0.4890684007496599
  0.4999999999999997  0.7500000000000001  0.4322718368520512
  0.2499999999999999  0.2500000000000000  0.2334838632104206
  0.4999999999999998  0.2500000000000000  0.3186787090568337
  0.4999999999999998  0.7500000000000001  0.2618821451592250
  0.2499999999999998  0.2500000000000000  0.4038735549032468
  0.2499999999999999  0.7500000000000001  0.3470769910056381
 -0.0000000000000002  0.7500000000000001  0.2618821451592250
  0.2499999999999999  0.3700000000000000  0.3470769910056381
  0.4999999999999997  0.1300000000000000  0.4322718368520512
 -0.0000000000000004  0.8700000000000000  0.4890684007496599
  0.7499999999999997  0.3700000000000000  0.5174666826984642
 -0.0000000000000004  0.6300000000000000  0.4890684007496599
  0.7499999999999997  0.1300000000000000  0.5174666826984642
  0.4999999999999998  0.1300000000000000  0.2618821451592250
  0.2499999999999999  0.6300000000000000  0.2334838632104206
  0.7499999999999997  0.8700000000000000  0.4038735549032468
 -0.0000000000000004  0.3700000000000000  0.4322718368520512
  0.7499999999999997  0.6300000000000000  0.4038735549032468
 -0.0000000000000004  0.1300000000000000  0.4322718368520512
  0.4999999999999998  0.3700000000000000  0.2618821451592250
  0.2499999999999999  0.8700000000000000  0.2334838632104206
 -0.0000000000000002  0.8700000000000000  0.3186787090568337
  0.2499999999999998  0.8700000000000000  0.4038735549032468
  0.7499999999999997  0.3700000000000000  0.3470769910056381
  0.7499999999999997  0.1300000000000000  0.3470769910056381
  0.2499999999999998  0.6300000000000000  0.4038735549032468
  0.4999999999999997  0.3700000000000000  0.4322718368520512
  0.7499999999999997  0.8700000000000000  0.2334838632104206
 -0.0000000000000002  0.3700000000000000  0.2618821451592250
  0.7499999999999997  0.6300000000000000  0.2334838632104206
 -0.0000000000000002  0.1300000000000000  0.2618821451592250
  0.4999999999999999  0.5000000000000000  0.6419914097440217
  0.2499999999999999  0.1300000000000000  0.3470769910056381
  0.4999999999999997  0.8700000000000000  0.4890684007496599
  0.2499999999999999  0.3700000000000000  0.5174666826984642
  0.4999999999999997  0.6300000000000000  0.4890684007496599
  0.2499999999999999  0.1300000000000000  0.5174666826984642
  0.4999999999999998  0.6300000000000000  0.3186787090568337
 -0.0000000000000002  0.6300000000000000  0.3186787090568337
  0.4999999999999998  0.8700000000000000  0.3186787090568337
