Li Mo S 
 1.0000000000000000
     9.4800000000000004    0.0000000000000000    0.0000000000000000
    -4.7400000000000002    8.2099208278764788    0.0000000000000000
     0.0000000000000000    0.0000000000000000   29.6020000000000039
 Li  Mo  S  
   2  18  42
Direct
  0.8103362128805675  0.3822758012885614  0.6621849875008445
  0.0719395884079939  0.3822758012885614  0.6621849875008446
  0.8888888888888887  0.7777777777777777  0.5109789879062226
  0.7777777777777777  0.8888888888888888  0.3032227552192419
  0.8888888888888887  0.4444444444444444  0.5109789879062226
  0.7777777777777778  0.5555555555555556  0.3032227552192419
  0.8888888888888887  0.1111111111111111  0.5109789879062226
  0.7777777777777778  0.2222222222222222  0.3032227552192419
  0.5555555555555552  0.7777777777777777  0.5109789879062226
  0.5555555555555552  0.4444444444444444  0.5109789879062226
  0.4444444444444444  0.5555555555555556  0.3032227552192419
  0.5555555555555552  0.1111111111111111  0.5109789879062226
  0.4444444444444444  0.2222222222222222  0.3032227552192419
  0.1111111111111111  0.2222222222222222  0.3032227552192419
  0.1111111111111111  0.5555555555555556  0.3032227552192419
  0.2222222222222221  0.1111111111111111  0.5109789879062226
  0.2222222222222220  0.7777777777777777  0.5109789879062226
  0.2222222222222221  0.4444444444444444  0.5109789879062226
  0.4444444444444444  0.8888888888888888  0.3032227552192419
  0.1111111111111110  0.8888888888888888  0.3032227552192419
  0.1111111111111111  0.2222222222222222  0.5608404837510979
  0.2222222222222221  0.1111111111111111  0.3530842510641173
  0.8888888888888887  0.4444444444444444  0.2533612593743666
  0.7777777777777778  0.5555555555555556  0.4611174920613473
  0.8888888888888887  0.4444444444444444  0.3530842510641173
  0.7777777777777778  0.5555555555555556  0.5608404837510979
  0.1111111111111111  0.2222222222222222  0.4611174920613473
  0.2222222222222221  0.1111111111111111  0.2533612593743666
  0.7777777777777778  0.2222222222222222  0.5608404837510979
  0.1111111111111111  0.5555555555555556  0.5608404837510979
  0.8888888888888887  0.7777777777777777  0.3530842510641173
  0.7777777777777777  0.8888888888888888  0.5608404837510979
  0.1111111111111110  0.8888888888888888  0.4611174920613473
  0.2687777111700653  0.5649815826776835  0.6554286872508615
  0.4006342512544534  0.6177241987114387  0.6452942368758866
  0.5061194833219640  0.6177241987114387  0.6351597865009121
  0.5852334073725969  0.5649815826776835  0.6452942368758866
  0.6643473314232300  0.5122389666439282  0.6554286872508615
  0.7777777777777777  0.8888888888888888  0.4611174920613473
  0.8888888888888887  0.7777777777777777  0.2533612593743666
  0.8888888888888887  0.1111111111111111  0.3530842510641173
  0.8888888888888887  0.1111111111111111  0.2533612593743666
  0.5555555555555552  0.1111111111111111  0.2533612593743666
  0.4444444444444444  0.2222222222222222  0.4611174920613473
  0.5555555555555552  0.1111111111111111  0.3530842510641173
  0.4444444444444444  0.2222222222222222  0.5608404837510979
  0.2222222222222221  0.4444444444444444  0.3530842510641173
  0.1111111111111111  0.5555555555555556  0.4611174920613473
  0.5555555555555552  0.4444444444444444  0.2533612593743666
  0.4444444444444444  0.5555555555555556  0.4611174920613473
  0.7777777777777778  0.2222222222222222  0.4611174920613473
  0.5555555555555552  0.4444444444444444  0.3530842510641173
  0.7698325634907404  0.5122389666439282  0.6452942368758866
  0.2222222222222221  0.4444444444444444  0.2533612593743666
  0.5555555555555552  0.7777777777777777  0.2533612593743666
  0.4444444444444444  0.8888888888888888  0.4611174920613473
  0.5555555555555552  0.7777777777777777  0.3530842510641173
  0.4444444444444444  0.8888888888888888  0.5608404837510979
  0.1111111111111110  0.8888888888888888  0.5608404837510979
  0.2222222222222220  0.7777777777777777  0.3530842510641173
  0.4444444444444444  0.5555555555555556  0.5608404837510979
  0.2222222222222220  0.7777777777777777  0.2533612593743666
