Li Mo S 
 1.0000000000000000
     9.4800000000000004    0.0000000000000000    0.0000000000000000
    -4.7400000000000002    8.2099208278764788    0.0000000000000000
     0.0000000000000000    0.0000000000000000   29.4020000000000010
 Li  Mo  S  
   2  18  40
Direct
  0.7048509808130571  0.3822758012885614  0.6598870825113937
  0.1774248204755043  0.3822758012885614  0.6598870825113937
  0.8888888888888887  0.7777777777777777  0.5144547989932658
  0.7777777777777777  0.8888888888888888  0.3052853547377729
  0.8888888888888887  0.4444444444444444  0.5144547989932658
  0.7777777777777778  0.5555555555555556  0.3052853547377729
  0.8888888888888887  0.1111111111111111  0.5144547989932658
  0.7777777777777778  0.2222222222222222  0.3052853547377729
  0.5555555555555552  0.7777777777777777  0.5144547989932658
  0.4444444444444444  0.8888888888888888  0.3052853547377729
  0.5555555555555552  0.4444444444444444  0.5144547989932658
  0.4444444444444444  0.5555555555555556  0.3052853547377729
  0.5555555555555552  0.1111111111111111  0.5144547989932658
  0.4444444444444444  0.2222222222222222  0.3052853547377729
  0.1111111111111111  0.2222222222222222  0.3052853547377729
  0.1111111111111111  0.5555555555555556  0.3052853547377729
  0.2222222222222220  0.7777777777777777  0.5144547989932658
  0.1111111111111110  0.8888888888888888  0.3052853547377729
  0.2222222222222221  0.1111111111111111  0.5144547989932658
  0.2222222222222221  0.4444444444444444  0.5144547989932658
  0.8888888888888887  0.1111111111111111  0.3554860213590912
  0.7777777777777778  0.2222222222222222  0.5646554656145840
  0.1111111111111111  0.2222222222222222  0.5646554656145840
  0.2222222222222221  0.1111111111111111  0.3554860213590912
  0.8888888888888887  0.4444444444444444  0.2550846881164546
  0.7777777777777778  0.5555555555555556  0.4642541323719475
  0.8888888888888887  0.4444444444444444  0.3554860213590912
  0.7777777777777778  0.5555555555555556  0.5646554656145840
  0.2222222222222221  0.1111111111111111  0.2550846881164546
  0.8888888888888887  0.7777777777777777  0.2550846881164546
  0.7777777777777777  0.8888888888888888  0.4642541323719475
  0.8888888888888887  0.7777777777777777  0.3554860213590912
  0.7777777777777777  0.8888888888888888  0.5646554656145840
  0.3742629432375761  0.5649815826776835  0.6428814366369634
  0.5061194833219641  0.6177241987114387  0.6428814366369634
  0.6116047153894746  0.6177241987114387  0.6428814366369634
  0.1111111111111111  0.2222222222222222  0.4642541323719475
  0.7777777777777778  0.2222222222222222  0.4642541323719475
  0.1111111111111110  0.8888888888888888  0.4642541323719475
  0.2222222222222220  0.7777777777777777  0.2550846881164546
  0.2222222222222220  0.7777777777777777  0.3554860213590912
  0.1111111111111110  0.8888888888888888  0.5646554656145840
  0.5555555555555552  0.1111111111111111  0.2550846881164546
  0.4444444444444444  0.2222222222222222  0.4642541323719475
  0.5555555555555552  0.1111111111111111  0.3554860213590912
  0.4444444444444444  0.2222222222222222  0.5646554656145840
  0.1111111111111111  0.5555555555555556  0.5646554656145840
  0.2222222222222221  0.4444444444444444  0.3554860213590912
  0.8888888888888887  0.1111111111111111  0.2550846881164546
  0.5555555555555552  0.4444444444444444  0.2550846881164546
  0.5555555555555552  0.4444444444444444  0.3554860213590912
  0.6907186394401077  0.5649815826776835  0.6428814366369634
  0.1111111111111111  0.5555555555555556  0.4642541323719475
  0.2222222222222221  0.4444444444444444  0.2550846881164546
  0.5555555555555552  0.7777777777777777  0.2550846881164546
  0.4444444444444444  0.8888888888888888  0.4642541323719475
  0.5555555555555552  0.7777777777777777  0.3554860213590912
  0.4444444444444444  0.8888888888888888  0.5646554656145840
  0.4444444444444444  0.5555555555555556  0.4642541323719475
  0.4444444444444444  0.5555555555555556  0.5646554656145840
