Mo O  S  Si
 1.0000000000000000
     9.8320000000000007    0.0000000000000000    0.0000000000000000
    -4.9160000000000004    8.5147617700086009    0.0000000000000000
     0.0000000000000000    0.0000000000000000   35.0101349999999982
 Mo  O   S   Si 
   9  48  18  24
Direct
  0.4444444444444444  0.5555555555555555  0.4573000075549551
  0.1111111111111110  0.5555555555555555  0.4573000075549551
  0.1111111111111110  0.8888888888888888  0.4573000075549551
  0.7777777777777778  0.8888888888888888  0.4573000075549551
  0.4444444444444445  0.2222222222222222  0.4573000075549551
  0.4444444444444444  0.8888888888888888  0.4573000075549551
  0.7777777777777778  0.2222222222222222  0.4573000075549551
  0.7777777777777777  0.5555555555555555  0.4573000075549551
  0.1111111111111111  0.2222222222222222  0.4573000075549551
  0.3530000000000000  0.3970000000000000  0.0929412297324760
  0.2500000000000000  0.1470000000000000  0.0929412297324760
  0.4999999999999999  0.3970000000000000  0.0413770183976726
  0.6470000000000000  0.2500000000000000  0.0929412297324760
  0.8530000000000000  0.3970000000000000  0.0929412297324760
  0.7500000000000000  0.1470000000000000  0.0929412297324760
  0.3970000000000000  0.1030000000000000  0.0413770183976726
  0.6030000000000000  0.0000000000000000  0.1957608846695393
  0.1030000000000000  0.0000000000000000  0.0413770183976726
  0.4999999999999999  0.3970000000000000  0.1957608846695393
  0.6470000000000000  0.2500000000000000  0.2473250960043427
  0.8530000000000000  0.3970000000000000  0.2473250960043427
  0.7500000000000000  0.1470000000000000  0.2473250960043427
  0.6030000000000000  0.4999999999999999  0.0413770183976726
  0.8970000000000000  0.6030000000000000  0.0413770183976726
  0.4999999999999998  0.8969999999999999  0.0413770183976726
  0.6470000000000000  0.7500000000000000  0.0929412297324760
  0.8530000000000000  0.8969999999999999  0.0929412297324760
  0.7500000000000000  0.6470000000000000  0.0929412297324760
  0.6030000000000000  0.4999999999999999  0.1957608846695393
  0.8970000000000000  0.6030000000000000  0.1957608846695393
  0.4999999999999998  0.8969999999999999  0.1957608846695393
  0.6470000000000000  0.7500000000000000  0.2473250960043427
  0.8530000000000000  0.8969999999999999  0.2473250960043427
  0.6030000000000000  0.0000000000000000  0.0413770183976726
  0.7500000000000000  0.6470000000000000  0.2473250960043427
  0.8969999999999998  0.1030000000000000  0.0413770183976726
  0.3530000000000000  0.8969999999999999  0.2473250960043427
  0.1030000000000000  0.0000000000000000  0.1957608846695393
  0.3970000000000000  0.1030000000000000  0.1957608846695393
  0.0000000000000000  0.3970000000000000  0.1957608846695393
  0.1470000000000000  0.2500000000000000  0.2473250960043427
  0.3530000000000000  0.3970000000000000  0.2473250960043427
  0.2500000000000000  0.1470000000000000  0.2473250960043427
  0.1470000000000000  0.2500000000000000  0.0929412297324760
  0.2500000000000000  0.6470000000000000  0.2473250960043427
  0.1030000000000000  0.4999999999999999  0.0413770183976726
  0.3970000000000000  0.6030000000000000  0.0413770183976726
 -0.0000000000000000  0.8969999999999999  0.0413770183976726
  0.1470000000000000  0.7500000000000000  0.0929412297324760
  0.8969999999999998  0.1030000000000000  0.1957608846695393
  0.2500000000000000  0.6470000000000000  0.0929412297324760
  0.1470000000000000  0.7500000000000000  0.2473250960043427
 -0.0000000000000000  0.8969999999999999  0.1957608846695393
  0.3530000000000000  0.8969999999999999  0.0929412297324760
  0.1030000000000000  0.4999999999999999  0.1957608846695393
  0.3970000000000000  0.6030000000000000  0.1957608846695393
  0.0000000000000000  0.3970000000000000  0.0413770183976726
  0.2222222222222222  0.4444444444444444  0.5429894800462780
  0.8888888888888890  0.4444444444444444  0.3716105350636323
  0.8888888888888890  0.1111111111111111  0.5429894800462780
  0.5555555555555555  0.4444444444444444  0.3716105350636323
  0.5555555555555555  0.1111111111111111  0.5429894800462780
  0.2222222222222222  0.7777777777777778  0.5429894800462780
  0.2222222222222222  0.1111111111111111  0.5429894800462780
  0.2222222222222222  0.4444444444444444  0.3716105350636323
  0.8888888888888887  0.7777777777777778  0.3716105350636323
  0.5555555555555555  0.1111111111111111  0.3716105350636323
  0.5555555555555555  0.7777777777777778  0.3716105350636323
  0.5555555555555555  0.4444444444444444  0.5429894800462780
  0.8888888888888890  0.1111111111111111  0.3716105350636323
  0.5555555555555555  0.7777777777777778  0.5429894800462780
  0.2222222222222222  0.7777777777777778  0.3716105350636323
  0.8888888888888890  0.4444444444444444  0.5429894800462780
  0.8888888888888887  0.7777777777777778  0.5429894800462780
  0.2222222222222222  0.1111111111111111  0.3716105350636323
  0.4999999999999999  0.7500000000000000  0.2859210625723094
  0.2500000000000000  0.0000000000000000  0.0799729849656393
  0.0000000000000000  0.2500000000000000  0.1315371963004427
  0.0000000000000000  0.0000000000000000  0.1829470237689743
  0.2500000000000000  0.0000000000000000  0.2343568512375060
  0.0000000000000000  0.2500000000000000  0.2859210625723094
 -0.0000000000000000  0.4999999999999999  0.0285631574971076
  0.2499999999999999  0.4999999999999999  0.0799729849656393
  0.0000000000000000  0.7500000000000000  0.1315371963004427
 -0.0000000000000000  0.4999999999999999  0.1829470237689743
  0.2499999999999999  0.4999999999999999  0.2343568512375060
  0.0000000000000000  0.7500000000000000  0.2859210625723094
  0.7500000000000000  0.0000000000000000  0.0799729849656393
  0.4999999999999999  0.2500000000000000  0.1315371963004427
  0.4999999999999999  0.0000000000000000  0.1829470237689743
  0.7500000000000000  0.0000000000000000  0.2343568512375060
  0.4999999999999999  0.2500000000000000  0.2859210625723094
  0.4999999999999999  0.4999999999999999  0.0285631574971076
  0.7499999999999999  0.4999999999999999  0.0799729849656393
  0.4999999999999999  0.7500000000000000  0.1315371963004427
  0.4999999999999999  0.4999999999999999  0.1829470237689743
  0.7499999999999999  0.4999999999999999  0.2343568512375060
  0.4999999999999999  0.0000000000000000  0.0285631574971076
  0.0000000000000000  0.0000000000000000  0.0285631574971076
