Si6 O6
1.0
   4.9160000000000004    0.0000000000000000    0.0000000000000003
  -2.4579999999999997    4.2573808850043013    0.0000000000000003
   0.0000000000000000    0.0000000000000000    5.4050000000000002
Si O
6 6
direct
   0.0000000000000000    0.4697000000000000    0.0000000000000000 Si
   0.5303000000000000    0.5303000000000000    0.6666666667000000 Si
   0.0000000000000000    0.4697000000000000    0.6666666667000000 Si
   0.5303000000000000    0.5303000000000000    0.3333333333000000 Si
   0.4697000000000000    0.0000000000000000    0.0000000000000000 Si
   0.4697000000000000    0.0000000000000000    0.3333333333000000 Si
   0.2669000000000000    0.4135000000000000    0.8809000000000000 O
   0.5865000000000000    0.8533999999999999    0.5475666667000000 O
   0.7331000000000000    0.1466000000000000    0.7857666666999999 O
   0.8533999999999999    0.5865000000000000    0.4524333333000000 O
   0.4135000000000000    0.2669000000000000    0.1191000000000000 O
   0.1466000000000000    0.7331000000000000    0.2142333333000000 O
