Si18 O18
1.0
   4.2573808850043013    0.0000000000000000   -2.4579999999999997
   0.0000000000000009    5.4050000000000011   -4.9160000000000004
   0.0000000000000000    0.0000000000000000   39.3280000000000030
Si O Si O Si O
6 6 6 6 6 6
direct
   0.4697000000000000    0.0000000000000000    0.4317884354960543 Si
   0.5303000000000000    0.6666666667000001    0.3314092688335544 Si
   0.4697000000000000    0.6666666667000000    0.3901217688335543 Si
   0.5303000000000000    0.3333333333000000    0.4147426021585544 Si
   0.0000000000000000    0.0000000000000000    0.3655009354960543 Si
   0.0000000000000000    0.3333333333000000    0.4071676021585544 Si
   0.4134999999999999    0.8809000000000000    0.3252634354960543 O
   0.8533999999999998    0.5475666667000000    0.3235467688335543 O
   0.1466000000000000    0.7857666667000001    0.3716467688335544 O
   0.5865000000000000    0.4524333333000001    0.3450176021585543 O
   0.2669000000000000    0.1191000000000000    0.3733634354960543 O
   0.7331000000000000    0.2142333333000000    0.3518926021585543 O
   0.4697000000000000    0.0000000000000000    0.5567884354960544 Si
   0.5303000000000000    0.6666666667000001    0.4564092688335544 Si
   0.4697000000000000    0.6666666667000000    0.5151217688335543 Si
   0.5303000000000000    0.3333333333000000    0.5397426021585543 Si
   0.0000000000000000    0.0000000000000000    0.4905009354960543 Si
   0.0000000000000000    0.3333333333000000    0.5321676021585544 Si
   0.4134999999999999    0.8809000000000000    0.4502634354960543 O
   0.8533999999999998    0.5475666667000000    0.4485467688335543 O
   0.1466000000000000    0.7857666667000001    0.4966467688335544 O
   0.5865000000000000    0.4524333333000001    0.4700176021585543 O
   0.2669000000000000    0.1191000000000000    0.4983634354960543 O
   0.7331000000000000    0.2142333333000000    0.4768926021585543 O
   0.4697000000000000    0.0000000000000000    0.6817884354960544 Si
   0.5303000000000000    0.6666666667000001    0.5814092688335544 Si
   0.4697000000000000    0.6666666667000000    0.6401217688335543 Si
   0.5303000000000000    0.3333333333000000    0.6647426021585543 Si
   0.0000000000000000    0.0000000000000000    0.6155009354960543 Si
   0.0000000000000000    0.3333333333000000    0.6571676021585544 Si
   0.4134999999999999    0.8809000000000000    0.5752634354960543 O
   0.8533999999999998    0.5475666667000000    0.5735467688335543 O
   0.1466000000000000    0.7857666667000001    0.6216467688335543 O
   0.5865000000000000    0.4524333333000001    0.5950176021585543 O
   0.2669000000000000    0.1191000000000000    0.6233634354960543 O
   0.7331000000000000    0.2142333333000000    0.6018926021585543 O
