Li2 Al12 S1 O18
1.0
   4.7590000000000003    0.0000000000000000    0.0000000000000003
  -2.3794999999999997    4.1214148966101440    0.0000000000000003
   0.0000000000000000    0.0000000000000000   38.9729999999999990
Al O Li S Li
12 18 1 1 1
direct
   0.3333333333000000    0.6666666667000000    0.5062888889000000 Al
   0.0000000000000000    0.0000000000000000    0.6174000000000001 Al
   0.6666666666999997    0.3333333333000000    0.5618444444333334 Al
   0.0000000000000000    0.0000000000000000    0.3826000000000001 Al
   0.0000000000000000    0.0000000000000000    0.4507333333333334 Al
   0.0000000000000000    0.0000000000000000    0.5492666666666667 Al
   0.3333333333000000    0.6666666667000000    0.4381555555666667 Al
   0.6666666666999997    0.3333333333000000    0.4937111111000000 Al
   0.6666666666999997    0.3333333333000000    0.6603777777666666 Al
   0.6666666666999997    0.3333333333000000    0.3951777777666667 Al
   0.3333333333000000    0.6666666667000000    0.3396222222333333 Al
   0.3333333333000000    0.6666666667000000    0.6048222222333334 Al
   0.0269333333000000    0.6666666667000000    0.4722222222333334 O
   0.3064000000000000    0.3064000000000000    0.5833333333333334 O
   0.6936000000000000    0.0000000000000000    0.5833333333333334 O
   0.9730666666999997    0.3333333333000000    0.5277777777666667 O
   0.0000000000000000    0.3064000000000000    0.4166666666666667 O
   0.6935999999999999    0.6936000000000000    0.4166666666666667 O
   0.3064000000000000    0.0000000000000000    0.4166666666666667 O
   0.3333333333000000    0.3602666667000000    0.4722222222333334 O
   0.6397333332999999    0.9730666667000001    0.4722222222333334 O
  -0.0000000000000000    0.6936000000000000    0.5833333333333334 O
   0.6666666667000000    0.6397333333000003    0.5277777777666667 O
   0.3602666667000001    0.0269333333000000    0.5277777777666667 O
   0.3602666667000000    0.3333333333000000    0.3611111111000000 O
   0.6666666666999997    0.0269333333000000    0.3611111111000000 O
   0.9730666667000000    0.6397333333000003    0.3611111111000000 O
   0.6397333333000000    0.6666666667000000    0.6388888889000000 O
   0.3333333333000000    0.9730666667000001    0.6388888889000000 O
   0.0269333333000000    0.3602666667000000    0.6388888889000000 O
   0.5000000000000000    0.5000000000000000    0.6860365671849818 Li
   0.5000000000000000    0.5000000000000000    0.7245247513124548 S
   0.5000000000000000    0.5000000000000000    0.7630129354399277 Li
