Mo S 
 1.0000000000000000
     9.4800000000000004    0.0000000000000000    0.0000000000000000
    -4.7400000000000002    8.2099208278764788    0.0000000000000000
     0.0000000000000000    0.0000000000000000   24.1020000000000003
 Mo  S  
  18  36
Direct
  0.1111111111111111  0.2222222222222222  0.3724172267861588
  0.5555555555555552  0.4444444444444444  0.6275827732138413
  0.4444444444444444  0.5555555555555556  0.3724172267861588
  0.7777777777777778  0.2222222222222222  0.3724172267861588
  0.8888888888888887  0.1111111111111111  0.6275827732138413
  0.5555555555555552  0.1111111111111111  0.6275827732138413
  0.4444444444444444  0.2222222222222222  0.3724172267861588
  0.4444444444444444  0.8888888888888888  0.3724172267861588
  0.8888888888888887  0.4444444444444444  0.6275827732138413
  0.2222222222222220  0.7777777777777777  0.6275827732138413
  0.1111111111111110  0.8888888888888888  0.3724172267861588
  0.7777777777777778  0.5555555555555556  0.3724172267861588
  0.5555555555555552  0.7777777777777777  0.6275827732138413
  0.2222222222222221  0.4444444444444444  0.6275827732138413
  0.1111111111111111  0.5555555555555556  0.3724172267861588
  0.7777777777777777  0.8888888888888888  0.3724172267861588
  0.2222222222222221  0.1111111111111111  0.6275827732138413
  0.8888888888888887  0.7777777777777777  0.6275827732138413
  0.5555555555555552  0.7777777777777777  0.3111774956435150
  0.4444444444444444  0.8888888888888888  0.5663430420711975
  0.5555555555555552  0.7777777777777777  0.4336569579288026
  0.4444444444444444  0.8888888888888888  0.6888225043564850
  0.7777777777777777  0.8888888888888888  0.5663430420711975
  0.7777777777777778  0.5555555555555556  0.5663430420711975
  0.8888888888888887  0.4444444444444444  0.3111774956435150
  0.7777777777777778  0.2222222222222222  0.5663430420711975
  0.8888888888888887  0.1111111111111111  0.4336569579288026
  0.7777777777777778  0.2222222222222222  0.6888225043564850
  0.7777777777777778  0.5555555555555556  0.6888225043564850
  0.8888888888888887  0.4444444444444444  0.4336569579288026
  0.8888888888888887  0.7777777777777777  0.3111774956435150
  0.8888888888888887  0.1111111111111111  0.3111774956435150
  0.5555555555555552  0.4444444444444444  0.3111774956435150
  0.5555555555555552  0.4444444444444444  0.4336569579288026
  0.2222222222222221  0.1111111111111111  0.3111774956435150
  0.1111111111111111  0.2222222222222222  0.5663430420711975
  0.2222222222222221  0.1111111111111111  0.4336569579288026
  0.1111111111111111  0.2222222222222222  0.6888225043564850
  0.2222222222222221  0.4444444444444444  0.3111774956435150
  0.1111111111111111  0.5555555555555556  0.5663430420711975
  0.2222222222222221  0.4444444444444444  0.4336569579288026
  0.1111111111111111  0.5555555555555556  0.6888225043564850
  0.4444444444444444  0.5555555555555556  0.6888225043564850
  0.2222222222222220  0.7777777777777777  0.3111774956435150
  0.2222222222222220  0.7777777777777777  0.4336569579288026
  0.1111111111111110  0.8888888888888888  0.6888225043564850
  0.5555555555555552  0.1111111111111111  0.3111774956435150
  0.4444444444444444  0.2222222222222222  0.5663430420711975
  0.5555555555555552  0.1111111111111111  0.4336569579288026
  0.4444444444444444  0.2222222222222222  0.6888225043564850
  0.8888888888888887  0.7777777777777777  0.4336569579288026
  0.4444444444444444  0.5555555555555556  0.5663430420711975
  0.1111111111111110  0.8888888888888888  0.5663430420711975
  0.7777777777777777  0.8888888888888888  0.6888225043564850
